14
0 306 690 417 415 835 688 707 839 500 486 790 926 363
306 0 456 643 691 577 456 401 660 681 734 800 874 527
690 456 0 826 943 158 1 354 236 792 928 626 587 674
417 643 826 0 155 984 824 996 865 122 101 567 760 152
415 691 943 155 0 1101 941 1072 1004 271 118 722 915 287
835 577 158 984 1101 0 160 350 272 947 1086 743 667 832
688 456 1 824 941 160 0 355 236 790 926 624 586 672
707 401 354 996 1072 350 355 0 582 1003 1095 953 938 857
839 660 236 865 1004 272 236 582 0 799 961 500 397 718
500 681 792 122 271 947 790 1003 799 0 179 454 652 154
486 734 928 101 118 1086 926 1095 961 179 0 633 831 253
790 800 626 567 722 743 624 953 500 454 633 0 204 476
926 874 587 760 915 667 586 938 397 652 831 204 0 652
363 527 674 152 287 832 672 857 718 154 253 476 652 0
